4 19 100 1 2
0 200
 1 35.00 35.00 0.00 0.00 0.00 0 0 0 230
 2 41.00 49.00 10.00 10.00 18.00 1 1 1 161 171
 3 35.00 17.00 10.00 7.00 10.00 1 1 1 50 60
 4 55.00 45.00 10.00 13.00 13.00 1 1 1 116 126
 5 55.00 20.00 10.00 19.00 18.00 1 1 1 149 159
 6 15.00 30.00 10.00 26.00 2.00 1 1 1 34 44
 7 25.00 30.00 10.00 3.00 5.00 1 1 1 99 109
 8 20.00 50.00 10.00 5.00 10.00 1 1 1 81 91
 9 10.00 43.00 10.00 9.00 36.00 1 1 1 95 105
 10 55.00 60.00 10.00 16.00 20.00 1 1 1 97 107
 11 30.00 60.00 10.00 16.00 21.00 1 1 1 124 134
 12 20.00 65.00 10.00 12.00 26.00 1 1 1 67 77
 13 50.00 35.00 10.00 19.00 3.00 1 1 1 63 73
 14 30.00 25.00 10.00 23.00 18.00 1 1 1 159 169
 15 15.00 10.00 10.00 20.00 17.00 1 1 1 32 42
 16 30.00 5.00 10.00 8.00 5.00 1 1 1 61 71
 17 10.00 20.00 10.00 19.00 9.00 1 1 1 75 85
 18 5.00 30.00 10.00 2.00 15.00 1 1 1 157 167
 19 20.00 40.00 10.00 12.00 9.00 1 1 1 87 97
 20 15.00 60.00 10.00 17.00 20.00 1 1 1 76 86
 21 45.00 65.00 10.00 9.00 36.00 1 1 1 126 136
 22 45.00 20.00 10.00 11.00 5.00 1 1 1 62 72
 23 45.00 10.00 10.00 18.00 6.00 1 1 1 97 107
 24 55.00 5.00 10.00 29.00 9.00 1 1 1 68 78
 25 65.00 35.00 10.00 3.00 6.00 1 1 1 153 163
 26 65.00 20.00 10.00 6.00 19.00 1 1 1 172 182
 27 45.00 30.00 10.00 17.00 6.00 1 1 1 132 142
 28 35.00 40.00 10.00 16.00 9.00 1 1 1 37 47
 29 41.00 37.00 10.00 16.00 19.00 1 1 1 39 49
 30 64.00 42.00 10.00 9.00 17.00 1 1 1 63 73
 31 40.00 60.00 10.00 21.00 18.00 1 1 1 71 81
 32 31.00 52.00 10.00 27.00 16.00 1 1 1 50 60
 33 35.00 69.00 10.00 23.00 26.00 1 1 1 141 151
 34 53.00 52.00 10.00 11.00 14.00 1 1 1 37 47
 35 65.00 55.00 10.00 14.00 20.00 1 1 1 117 127
 36 63.00 65.00 10.00 8.00 11.00 1 1 1 143 153
 37 2.00 60.00 10.00 5.00 11.00 1 1 1 41 51
 38 20.00 20.00 10.00 8.00 35.00 1 1 1 134 144
 39 5.00 5.00 10.00 16.00 14.00 1 1 1 83 93
 40 60.00 12.00 10.00 31.00 27.00 1 1 1 44 54
 41 40.00 25.00 10.00 9.00 8.00 1 1 1 85 95
 42 42.00 7.00 10.00 5.00 12.00 1 1 1 97 107
 43 24.00 12.00 10.00 5.00 11.00 1 1 1 31 41
 44 23.00 3.00 10.00 7.00 9.00 1 1 1 132 142
 45 11.00 14.00 10.00 18.00 12.00 1 1 1 69 79
 46 6.00 38.00 10.00 16.00 41.00 1 1 1 32 42
 47 2.00 48.00 10.00 1.00 9.00 1 1 1 117 127
 48 8.00 56.00 10.00 27.00 25.00 1 1 1 51 61
 49 13.00 52.00 10.00 36.00 16.00 1 1 1 165 175
 50 6.00 68.00 10.00 30.00 9.00 1 1 1 108 118
 51 47.00 47.00 10.00 13.00 1.00 1 1 1 124 134
 52 49.00 58.00 10.00 10.00 7.00 1 1 1 88 98
 53 27.00 43.00 10.00 9.00 15.00 1 1 1 52 62
 54 37.00 31.00 10.00 14.00 22.00 1 1 1 95 105
 55 57.00 29.00 10.00 18.00 13.00 1 1 1 140 150
 56 63.00 23.00 10.00 2.00 3.00 1 1 1 136 146
 57 53.00 12.00 10.00 6.00 8.00 1 1 1 130 140
 58 32.00 12.00 10.00 7.00 9.00 1 1 1 101 111
 59 36.00 26.00 10.00 18.00 23.00 1 1 1 200 210
 60 21.00 24.00 10.00 28.00 16.00 1 1 1 18 28
 61 17.00 34.00 10.00 3.00 19.00 1 1 1 162 172
 62 12.00 24.00 10.00 13.00 10.00 1 1 1 76 86
 63 24.00 58.00 10.00 19.00 16.00 1 1 1 58 68
 64 27.00 69.00 10.00 10.00 13.00 1 1 1 34 44
 65 15.00 77.00 10.00 9.00 13.00 1 1 1 73 83
 66 62.00 77.00 10.00 20.00 7.00 1 1 1 51 61
 67 49.00 73.00 10.00 25.00 27.00 1 1 1 127 137
 68 67.00 5.00 10.00 25.00 25.00 1 1 1 83 93
 69 56.00 39.00 10.00 36.00 23.00 1 1 1 142 152
 70 37.00 47.00 10.00 6.00 16.00 1 1 1 50 60
 71 37.00 56.00 10.00 5.00 31.00 1 1 1 182 192
 72 57.00 68.00 10.00 15.00 29.00 1 1 1 77 87
 73 47.00 16.00 10.00 25.00 28.00 1 1 1 35 45
 74 44.00 17.00 10.00 9.00 14.00 1 1 1 78 88
 75 46.00 13.00 10.00 8.00 8.00 1 1 1 149 159
 76 49.00 11.00 10.00 18.00 6.00 1 1 1 69 79
 77 49.00 42.00 10.00 13.00 30.00 1 1 1 73 83
 78 53.00 43.00 10.00 14.00 1.00 1 1 1 179 189
 79 61.00 52.00 10.00 3.00 3.00 1 1 1 96 106
 80 57.00 48.00 10.00 23.00 12.00 1 1 1 92 102
 81 56.00 37.00 10.00 6.00 18.00 1 1 1 182 192
 82 55.00 54.00 10.00 26.00 3.00 1 1 1 94 104
 83 15.00 47.00 10.00 16.00 27.00 1 1 1 55 65
 84 14.00 37.00 10.00 11.00 23.00 1 1 1 44 54
 85 11.00 31.00 10.00 7.00 16.00 1 1 1 101 111
 86 16.00 22.00 10.00 41.00 5.00 1 1 1 91 101
 87 4.00 18.00 10.00 35.00 2.00 1 1 1 94 104
 88 28.00 18.00 10.00 26.00 25.00 1 1 1 93 103
 89 26.00 52.00 10.00 9.00 9.00 1 1 1 74 84
 90 26.00 35.00 10.00 15.00 11.00 1 1 1 176 186
 91 31.00 67.00 10.00 3.00 7.00 1 1 1 95 105
 92 15.00 19.00 10.00 1.00 5.00 1 1 1 160 170
 93 22.00 22.00 10.00 2.00 10.00 1 1 1 18 28
 94 18.00 24.00 10.00 22.00 3.00 1 1 1 188 198
 95 26.00 27.00 10.00 27.00 16.00 1 1 1 100 110
 96 25.00 24.00 10.00 20.00 7.00 1 1 1 39 49
 97 22.00 27.00 10.00 11.00 17.00 1 1 1 135 145
 98 25.00 21.00 10.00 12.00 19.00 1 1 1 133 143
 99 19.00 21.00 10.00 10.00 2.00 1 1 1 58 68
 100 20.00 26.00 10.00 9.00 26.00 1 1 1 83 93
 101 18.00 18.00 10.00 17.00 8.00 1 1 1 185 195
